; benchmark generated from python API
(set-info :status unknown)
(declare-fun cell_1_1 () Int)
(declare-fun cell_1_6 () Int)
(declare-fun cell_2_3 () Int)
(declare-fun cell_2_4 () Int)
(declare-fun cell_3_7 () Int)
(declare-fun cell_3_8 () Int)
(declare-fun cell_4_2 () Int)
(declare-fun cell_4_9 () Int)
(declare-fun cell_5_4 () Int)
(declare-fun cell_5_5 () Int)
(declare-fun cell_6_8 () Int)
(declare-fun cell_7_9 () Int)
(declare-fun cell_8_5 () Int)
(declare-fun cell_9_1 () Int)
(declare-fun cell_2_1 () Int)
(declare-fun cell_3_1 () Int)
(declare-fun cell_4_1 () Int)
(declare-fun cell_5_1 () Int)
(declare-fun cell_6_1 () Int)
(declare-fun cell_7_1 () Int)
(declare-fun cell_8_1 () Int)
(declare-fun cell_1_2 () Int)
(declare-fun cell_2_2 () Int)
(declare-fun cell_3_2 () Int)
(declare-fun cell_5_2 () Int)
(declare-fun cell_6_2 () Int)
(declare-fun cell_7_2 () Int)
(declare-fun cell_8_2 () Int)
(declare-fun cell_9_2 () Int)
(declare-fun cell_1_3 () Int)
(declare-fun cell_3_3 () Int)
(declare-fun cell_4_3 () Int)
(declare-fun cell_5_3 () Int)
(declare-fun cell_6_3 () Int)
(declare-fun cell_7_3 () Int)
(declare-fun cell_8_3 () Int)
(declare-fun cell_9_3 () Int)
(declare-fun cell_1_4 () Int)
(declare-fun cell_3_4 () Int)
(declare-fun cell_4_4 () Int)
(declare-fun cell_6_4 () Int)
(declare-fun cell_7_4 () Int)
(declare-fun cell_8_4 () Int)
(declare-fun cell_9_4 () Int)
(declare-fun cell_1_5 () Int)
(declare-fun cell_2_5 () Int)
(declare-fun cell_3_5 () Int)
(declare-fun cell_4_5 () Int)
(declare-fun cell_6_5 () Int)
(declare-fun cell_7_5 () Int)
(declare-fun cell_9_5 () Int)
(declare-fun cell_2_6 () Int)
(declare-fun cell_3_6 () Int)
(declare-fun cell_4_6 () Int)
(declare-fun cell_5_6 () Int)
(declare-fun cell_6_6 () Int)
(declare-fun cell_7_6 () Int)
(declare-fun cell_8_6 () Int)
(declare-fun cell_9_6 () Int)
(declare-fun cell_1_7 () Int)
(declare-fun cell_2_7 () Int)
(declare-fun cell_4_7 () Int)
(declare-fun cell_5_7 () Int)
(declare-fun cell_6_7 () Int)
(declare-fun cell_7_7 () Int)
(declare-fun cell_8_7 () Int)
(declare-fun cell_9_7 () Int)
(declare-fun cell_1_8 () Int)
(declare-fun cell_2_8 () Int)
(declare-fun cell_4_8 () Int)
(declare-fun cell_5_8 () Int)
(declare-fun cell_7_8 () Int)
(declare-fun cell_8_8 () Int)
(declare-fun cell_9_8 () Int)
(declare-fun cell_1_9 () Int)
(declare-fun cell_2_9 () Int)
(declare-fun cell_3_9 () Int)
(declare-fun cell_5_9 () Int)
(declare-fun cell_6_9 () Int)
(declare-fun cell_8_9 () Int)
(declare-fun cell_9_9 () Int)
(assert
 (= cell_1_1 2))
(assert
 (= cell_1_6 1))
(assert
 (= cell_2_3 1))
(assert
 (= cell_2_4 2))
(assert
 (= cell_3_7 1))
(assert
 (= cell_3_8 2))
(assert
 (= cell_4_2 1))
(assert
 (= cell_4_9 2))
(assert
 (= cell_5_4 1))
(assert
 (= cell_5_5 2))
(assert
 (= cell_6_8 1))
(assert
 (= cell_7_9 1))
(assert
 (= cell_8_5 1))
(assert
 (= cell_9_1 1))
(assert
 (let (($x2494 (= cell_1_1 2)))
 (or (= cell_1_1 1) $x2494 (= cell_1_1 3) (= cell_1_1 4) (= cell_1_1 5) (= cell_1_1 6) (= cell_1_1 7) (= cell_1_1 8) (= cell_1_1 9))))
(assert
 (let (($x6267 (= cell_2_1 9)))
 (let (($x357 (= cell_2_1 8)))
 (let (($x4447 (= cell_2_1 7)))
 (let (($x4152 (= cell_2_1 6)))
 (let (($x4881 (= cell_2_1 5)))
 (let (($x7287 (= cell_2_1 4)))
 (let (($x8234 (= cell_2_1 3)))
 (let (($x8039 (= cell_2_1 2)))
 (let (($x2145 (= cell_2_1 1)))
 (or $x2145 $x8039 $x8234 $x7287 $x4881 $x4152 $x4447 $x357 $x6267)))))))))))
(assert
 (let (($x8381 (= cell_3_1 9)))
 (let (($x763 (= cell_3_1 8)))
 (let (($x636 (= cell_3_1 7)))
 (let (($x7434 (= cell_3_1 6)))
 (let (($x267 (= cell_3_1 5)))
 (let (($x2181 (= cell_3_1 4)))
 (let (($x6926 (= cell_3_1 3)))
 (let (($x3900 (= cell_3_1 2)))
 (let (($x6738 (= cell_3_1 1)))
 (or $x6738 $x3900 $x6926 $x2181 $x267 $x7434 $x636 $x763 $x8381)))))))))))
(assert
 (let (($x8588 (= cell_4_1 9)))
 (let (($x5702 (= cell_4_1 8)))
 (let (($x1570 (= cell_4_1 7)))
 (let (($x3877 (= cell_4_1 6)))
 (let (($x3389 (= cell_4_1 5)))
 (let (($x7344 (= cell_4_1 4)))
 (let (($x6282 (= cell_4_1 3)))
 (let (($x2709 (= cell_4_1 2)))
 (let (($x7446 (= cell_4_1 1)))
 (or $x7446 $x2709 $x6282 $x7344 $x3389 $x3877 $x1570 $x5702 $x8588)))))))))))
(assert
 (let (($x4774 (= cell_5_1 9)))
 (let (($x5131 (= cell_5_1 8)))
 (let (($x9748 (= cell_5_1 7)))
 (let (($x8872 (= cell_5_1 6)))
 (let (($x32 (= cell_5_1 5)))
 (let (($x4615 (= cell_5_1 4)))
 (let (($x7534 (= cell_5_1 3)))
 (let (($x192 (= cell_5_1 2)))
 (let (($x2433 (= cell_5_1 1)))
 (or $x2433 $x192 $x7534 $x4615 $x32 $x8872 $x9748 $x5131 $x4774)))))))))))
(assert
 (let (($x2521 (= cell_6_1 9)))
 (let (($x4581 (= cell_6_1 8)))
 (let (($x6199 (= cell_6_1 7)))
 (let (($x4652 (= cell_6_1 6)))
 (let (($x6029 (= cell_6_1 5)))
 (let (($x1772 (= cell_6_1 4)))
 (let (($x2762 (= cell_6_1 3)))
 (let (($x6773 (= cell_6_1 2)))
 (let (($x2975 (= cell_6_1 1)))
 (or $x2975 $x6773 $x2762 $x1772 $x6029 $x4652 $x6199 $x4581 $x2521)))))))))))
(assert
 (let (($x5979 (= cell_7_1 9)))
 (let (($x10083 (= cell_7_1 8)))
 (let (($x5686 (= cell_7_1 7)))
 (let (($x6183 (= cell_7_1 6)))
 (let (($x7875 (= cell_7_1 5)))
 (let (($x1508 (= cell_7_1 4)))
 (let (($x8467 (= cell_7_1 3)))
 (let (($x4252 (= cell_7_1 2)))
 (let (($x425 (= cell_7_1 1)))
 (or $x425 $x4252 $x8467 $x1508 $x7875 $x6183 $x5686 $x10083 $x5979)))))))))))
(assert
 (let (($x2714 (= cell_8_1 9)))
 (let (($x3732 (= cell_8_1 8)))
 (let (($x2132 (= cell_8_1 7)))
 (let (($x8723 (= cell_8_1 6)))
 (let (($x4813 (= cell_8_1 5)))
 (let (($x3458 (= cell_8_1 4)))
 (let (($x6995 (= cell_8_1 3)))
 (let (($x5583 (= cell_8_1 2)))
 (let (($x9962 (= cell_8_1 1)))
 (or $x9962 $x5583 $x6995 $x3458 $x4813 $x8723 $x2132 $x3732 $x2714)))))))))))
(assert
 (let (($x2613 (= cell_9_1 1)))
 (or $x2613 (= cell_9_1 2) (= cell_9_1 3) (= cell_9_1 4) (= cell_9_1 5) (= cell_9_1 6) (= cell_9_1 7) (= cell_9_1 8) (= cell_9_1 9))))
(assert
 (let (($x9559 (= cell_1_2 9)))
 (let (($x248 (= cell_1_2 8)))
 (let (($x7562 (= cell_1_2 7)))
 (let (($x9767 (= cell_1_2 6)))
 (let (($x2160 (= cell_1_2 5)))
 (let (($x6368 (= cell_1_2 4)))
 (let (($x3147 (= cell_1_2 3)))
 (let (($x5990 (= cell_1_2 2)))
 (let (($x5995 (= cell_1_2 1)))
 (or $x5995 $x5990 $x3147 $x6368 $x2160 $x9767 $x7562 $x248 $x9559)))))))))))
(assert
 (let (($x1103 (= cell_2_2 9)))
 (let (($x3117 (= cell_2_2 8)))
 (let (($x5218 (= cell_2_2 7)))
 (let (($x9876 (= cell_2_2 6)))
 (let (($x1953 (= cell_2_2 5)))
 (let (($x6116 (= cell_2_2 4)))
 (let (($x6232 (= cell_2_2 3)))
 (let (($x7494 (= cell_2_2 2)))
 (let (($x423 (= cell_2_2 1)))
 (or $x423 $x7494 $x6232 $x6116 $x1953 $x9876 $x5218 $x3117 $x1103)))))))))))
(assert
 (let (($x2999 (= cell_3_2 9)))
 (let (($x1207 (= cell_3_2 8)))
 (let (($x6445 (= cell_3_2 7)))
 (let (($x5807 (= cell_3_2 6)))
 (let (($x8391 (= cell_3_2 5)))
 (let (($x6733 (= cell_3_2 4)))
 (let (($x5645 (= cell_3_2 3)))
 (let (($x5145 (= cell_3_2 2)))
 (let (($x9294 (= cell_3_2 1)))
 (or $x9294 $x5145 $x5645 $x6733 $x8391 $x5807 $x6445 $x1207 $x2999)))))))))))
(assert
 (let (($x8737 (= cell_4_2 1)))
 (or $x8737 (= cell_4_2 2) (= cell_4_2 3) (= cell_4_2 4) (= cell_4_2 5) (= cell_4_2 6) (= cell_4_2 7) (= cell_4_2 8) (= cell_4_2 9))))
(assert
 (let (($x7557 (= cell_5_2 9)))
 (let (($x2649 (= cell_5_2 8)))
 (let (($x3021 (= cell_5_2 7)))
 (let (($x1086 (= cell_5_2 6)))
 (let (($x8257 (= cell_5_2 5)))
 (let (($x5753 (= cell_5_2 4)))
 (let (($x725 (= cell_5_2 3)))
 (let (($x6372 (= cell_5_2 2)))
 (let (($x396 (= cell_5_2 1)))
 (or $x396 $x6372 $x725 $x5753 $x8257 $x1086 $x3021 $x2649 $x7557)))))))))))
(assert
 (let (($x3922 (= cell_6_2 9)))
 (let (($x2847 (= cell_6_2 8)))
 (let (($x2920 (= cell_6_2 7)))
 (let (($x8246 (= cell_6_2 6)))
 (let (($x5054 (= cell_6_2 5)))
 (let (($x4577 (= cell_6_2 4)))
 (let (($x1295 (= cell_6_2 3)))
 (let (($x7013 (= cell_6_2 2)))
 (let (($x6251 (= cell_6_2 1)))
 (or $x6251 $x7013 $x1295 $x4577 $x5054 $x8246 $x2920 $x2847 $x3922)))))))))))
(assert
 (let (($x9640 (= cell_7_2 9)))
 (let (($x1517 (= cell_7_2 8)))
 (let (($x9466 (= cell_7_2 7)))
 (let (($x3839 (= cell_7_2 6)))
 (let (($x8464 (= cell_7_2 5)))
 (let (($x7430 (= cell_7_2 4)))
 (let (($x8561 (= cell_7_2 3)))
 (let (($x8276 (= cell_7_2 2)))
 (let (($x3156 (= cell_7_2 1)))
 (or $x3156 $x8276 $x8561 $x7430 $x8464 $x3839 $x9466 $x1517 $x9640)))))))))))
(assert
 (let (($x5156 (= cell_8_2 9)))
 (let (($x6554 (= cell_8_2 8)))
 (let (($x5176 (= cell_8_2 7)))
 (let (($x1296 (= cell_8_2 6)))
 (let (($x3665 (= cell_8_2 5)))
 (let (($x3088 (= cell_8_2 4)))
 (let (($x3262 (= cell_8_2 3)))
 (let (($x5432 (= cell_8_2 2)))
 (let (($x3938 (= cell_8_2 1)))
 (or $x3938 $x5432 $x3262 $x3088 $x3665 $x1296 $x5176 $x6554 $x5156)))))))))))
(assert
 (let (($x2128 (= cell_9_2 2)))
 (let (($x1299 (= cell_9_2 1)))
 (or $x1299 $x2128 (= cell_9_2 3) (= cell_9_2 4) (= cell_9_2 5) (= cell_9_2 6) (= cell_9_2 7) (= cell_9_2 8) (= cell_9_2 9)))))
(assert
 (let (($x448 (= cell_1_3 9)))
 (let (($x358 (= cell_1_3 8)))
 (let (($x4650 (= cell_1_3 7)))
 (let (($x362 (= cell_1_3 6)))
 (let (($x6865 (= cell_1_3 5)))
 (let (($x6803 (= cell_1_3 4)))
 (let (($x8995 (= cell_1_3 3)))
 (let (($x6 (= cell_1_3 2)))
 (let (($x9506 (= cell_1_3 1)))
 (or $x9506 $x6 $x8995 $x6803 $x6865 $x362 $x4650 $x358 $x448)))))))))))
(assert
 (let (($x2472 (= cell_2_3 1)))
 (or $x2472 (= cell_2_3 2) (= cell_2_3 3) (= cell_2_3 4) (= cell_2_3 5) (= cell_2_3 6) (= cell_2_3 7) (= cell_2_3 8) (= cell_2_3 9))))
(assert
 (let (($x6617 (= cell_3_3 9)))
 (let (($x9206 (= cell_3_3 8)))
 (let (($x1743 (= cell_3_3 7)))
 (let (($x886 (= cell_3_3 6)))
 (let (($x4100 (= cell_3_3 5)))
 (let (($x1834 (= cell_3_3 4)))
 (let (($x2318 (= cell_3_3 3)))
 (let (($x8099 (= cell_3_3 2)))
 (let (($x986 (= cell_3_3 1)))
 (or $x986 $x8099 $x2318 $x1834 $x4100 $x886 $x1743 $x9206 $x6617)))))))))))
(assert
 (let (($x4579 (= cell_4_3 9)))
 (let (($x8345 (= cell_4_3 8)))
 (let (($x926 (= cell_4_3 7)))
 (let (($x3030 (= cell_4_3 6)))
 (let (($x5594 (= cell_4_3 5)))
 (let (($x3233 (= cell_4_3 4)))
 (let (($x4205 (= cell_4_3 3)))
 (let (($x9030 (= cell_4_3 2)))
 (let (($x7330 (= cell_4_3 1)))
 (or $x7330 $x9030 $x4205 $x3233 $x5594 $x3030 $x926 $x8345 $x4579)))))))))))
(assert
 (let (($x5217 (= cell_5_3 9)))
 (let (($x8644 (= cell_5_3 8)))
 (let (($x7410 (= cell_5_3 7)))
 (let (($x5203 (= cell_5_3 6)))
 (let (($x1340 (= cell_5_3 5)))
 (let (($x4975 (= cell_5_3 4)))
 (let (($x4267 (= cell_5_3 3)))
 (let (($x7388 (= cell_5_3 2)))
 (let (($x4058 (= cell_5_3 1)))
 (or $x4058 $x7388 $x4267 $x4975 $x1340 $x5203 $x7410 $x8644 $x5217)))))))))))
(assert
 (let (($x3825 (= cell_6_3 9)))
 (let (($x4412 (= cell_6_3 8)))
 (let (($x1451 (= cell_6_3 7)))
 (let (($x1592 (= cell_6_3 6)))
 (let (($x8373 (= cell_6_3 5)))
 (let (($x8386 (= cell_6_3 4)))
 (let (($x1184 (= cell_6_3 3)))
 (let (($x5784 (= cell_6_3 2)))
 (let (($x3568 (= cell_6_3 1)))
 (or $x3568 $x5784 $x1184 $x8386 $x8373 $x1592 $x1451 $x4412 $x3825)))))))))))
(assert
 (let (($x4895 (= cell_7_3 9)))
 (let (($x5390 (= cell_7_3 8)))
 (let (($x7653 (= cell_7_3 7)))
 (let (($x1644 (= cell_7_3 6)))
 (let (($x6877 (= cell_7_3 5)))
 (let (($x6120 (= cell_7_3 4)))
 (let (($x3953 (= cell_7_3 3)))
 (let (($x237 (= cell_7_3 2)))
 (let (($x8306 (= cell_7_3 1)))
 (or $x8306 $x237 $x3953 $x6120 $x6877 $x1644 $x7653 $x5390 $x4895)))))))))))
(assert
 (let (($x8061 (= cell_8_3 9)))
 (let (($x8583 (= cell_8_3 8)))
 (let (($x8126 (= cell_8_3 7)))
 (let (($x4332 (= cell_8_3 6)))
 (let (($x5117 (= cell_8_3 5)))
 (let (($x4401 (= cell_8_3 4)))
 (let (($x6248 (= cell_8_3 3)))
 (let (($x246 (= cell_8_3 2)))
 (let (($x10109 (= cell_8_3 1)))
 (or $x10109 $x246 $x6248 $x4401 $x5117 $x4332 $x8126 $x8583 $x8061)))))))))))
(assert
 (let (($x8002 (= cell_9_3 1)))
 (or $x8002 (= cell_9_3 2) (= cell_9_3 3) (= cell_9_3 4) (= cell_9_3 5) (= cell_9_3 6) (= cell_9_3 7) (= cell_9_3 8) (= cell_9_3 9))))
(assert
 (let (($x5620 (= cell_1_4 9)))
 (let (($x7382 (= cell_1_4 8)))
 (let (($x4704 (= cell_1_4 7)))
 (let (($x4264 (= cell_1_4 6)))
 (let (($x6493 (= cell_1_4 5)))
 (let (($x9318 (= cell_1_4 4)))
 (let (($x5604 (= cell_1_4 3)))
 (let (($x475 (= cell_1_4 2)))
 (let (($x8672 (= cell_1_4 1)))
 (or $x8672 $x475 $x5604 $x9318 $x6493 $x4264 $x4704 $x7382 $x5620)))))))))))
(assert
 (let (($x7982 (= cell_2_4 2)))
 (or (= cell_2_4 1) $x7982 (= cell_2_4 3) (= cell_2_4 4) (= cell_2_4 5) (= cell_2_4 6) (= cell_2_4 7) (= cell_2_4 8) (= cell_2_4 9))))
(assert
 (let (($x1844 (= cell_3_4 9)))
 (let (($x1245 (= cell_3_4 8)))
 (let (($x9847 (= cell_3_4 7)))
 (let (($x4698 (= cell_3_4 6)))
 (let (($x612 (= cell_3_4 5)))
 (let (($x3280 (= cell_3_4 4)))
 (let (($x4585 (= cell_3_4 3)))
 (let (($x4847 (= cell_3_4 2)))
 (let (($x3133 (= cell_3_4 1)))
 (or $x3133 $x4847 $x4585 $x3280 $x612 $x4698 $x9847 $x1245 $x1844)))))))))))
(assert
 (let (($x8976 (= cell_4_4 9)))
 (let (($x7053 (= cell_4_4 8)))
 (let (($x8625 (= cell_4_4 7)))
 (let (($x8763 (= cell_4_4 6)))
 (let (($x2370 (= cell_4_4 5)))
 (let (($x8104 (= cell_4_4 4)))
 (let (($x6602 (= cell_4_4 3)))
 (let (($x9246 (= cell_4_4 2)))
 (let (($x9362 (= cell_4_4 1)))
 (or $x9362 $x9246 $x6602 $x8104 $x2370 $x8763 $x8625 $x7053 $x8976)))))))))))
(assert
 (let (($x9411 (= cell_5_4 1)))
 (or $x9411 (= cell_5_4 2) (= cell_5_4 3) (= cell_5_4 4) (= cell_5_4 5) (= cell_5_4 6) (= cell_5_4 7) (= cell_5_4 8) (= cell_5_4 9))))
(assert
 (let (($x3710 (= cell_6_4 9)))
 (let (($x9079 (= cell_6_4 8)))
 (let (($x2602 (= cell_6_4 7)))
 (let (($x4629 (= cell_6_4 6)))
 (let (($x3718 (= cell_6_4 5)))
 (let (($x9762 (= cell_6_4 4)))
 (let (($x9896 (= cell_6_4 3)))
 (let (($x960 (= cell_6_4 2)))
 (let (($x7627 (= cell_6_4 1)))
 (or $x7627 $x960 $x9896 $x9762 $x3718 $x4629 $x2602 $x9079 $x3710)))))))))))
(assert
 (let (($x1234 (= cell_7_4 9)))
 (let (($x9725 (= cell_7_4 8)))
 (let (($x3290 (= cell_7_4 7)))
 (let (($x3729 (= cell_7_4 6)))
 (let (($x6652 (= cell_7_4 5)))
 (let (($x1396 (= cell_7_4 4)))
 (let (($x4840 (= cell_7_4 3)))
 (let (($x9765 (= cell_7_4 2)))
 (let (($x4962 (= cell_7_4 1)))
 (or $x4962 $x9765 $x4840 $x1396 $x6652 $x3729 $x3290 $x9725 $x1234)))))))))))
(assert
 (let (($x4007 (= cell_8_4 9)))
 (let (($x7050 (= cell_8_4 8)))
 (let (($x856 (= cell_8_4 7)))
 (let (($x936 (= cell_8_4 6)))
 (let (($x1111 (= cell_8_4 5)))
 (let (($x9867 (= cell_8_4 4)))
 (let (($x10140 (= cell_8_4 3)))
 (let (($x4495 (= cell_8_4 2)))
 (let (($x5592 (= cell_8_4 1)))
 (or $x5592 $x4495 $x10140 $x9867 $x1111 $x936 $x856 $x7050 $x4007)))))))))))
(assert
 (let (($x8650 (= cell_9_4 2)))
 (let (($x7657 (= cell_9_4 1)))
 (or $x7657 $x8650 (= cell_9_4 3) (= cell_9_4 4) (= cell_9_4 5) (= cell_9_4 6) (= cell_9_4 7) (= cell_9_4 8) (= cell_9_4 9)))))
(assert
 (let (($x2594 (= cell_1_5 9)))
 (let (($x9618 (= cell_1_5 8)))
 (let (($x8430 (= cell_1_5 7)))
 (let (($x4572 (= cell_1_5 6)))
 (let (($x9067 (= cell_1_5 5)))
 (let (($x9051 (= cell_1_5 4)))
 (let (($x5919 (= cell_1_5 3)))
 (let (($x1835 (= cell_1_5 2)))
 (let (($x10018 (= cell_1_5 1)))
 (or $x10018 $x1835 $x5919 $x9051 $x9067 $x4572 $x8430 $x9618 $x2594)))))))))))
(assert
 (let (($x4071 (= cell_2_5 9)))
 (let (($x3895 (= cell_2_5 8)))
 (let (($x5020 (= cell_2_5 7)))
 (let (($x8278 (= cell_2_5 6)))
 (let (($x4998 (= cell_2_5 5)))
 (let (($x1911 (= cell_2_5 4)))
 (let (($x1625 (= cell_2_5 3)))
 (let (($x7727 (= cell_2_5 2)))
 (let (($x974 (= cell_2_5 1)))
 (or $x974 $x7727 $x1625 $x1911 $x4998 $x8278 $x5020 $x3895 $x4071)))))))))))
(assert
 (let (($x7157 (= cell_3_5 9)))
 (let (($x645 (= cell_3_5 8)))
 (let (($x1099 (= cell_3_5 7)))
 (let (($x2344 (= cell_3_5 6)))
 (let (($x5257 (= cell_3_5 5)))
 (let (($x7807 (= cell_3_5 4)))
 (let (($x6550 (= cell_3_5 3)))
 (let (($x6297 (= cell_3_5 2)))
 (let (($x2696 (= cell_3_5 1)))
 (or $x2696 $x6297 $x6550 $x7807 $x5257 $x2344 $x1099 $x645 $x7157)))))))))))
(assert
 (let (($x6724 (= cell_4_5 9)))
 (let (($x1057 (= cell_4_5 8)))
 (let (($x7888 (= cell_4_5 7)))
 (let (($x2741 (= cell_4_5 6)))
 (let (($x1051 (= cell_4_5 5)))
 (let (($x5306 (= cell_4_5 4)))
 (let (($x590 (= cell_4_5 3)))
 (let (($x4045 (= cell_4_5 2)))
 (let (($x9779 (= cell_4_5 1)))
 (or $x9779 $x4045 $x590 $x5306 $x1051 $x2741 $x7888 $x1057 $x6724)))))))))))
(assert
 (let (($x5515 (= cell_5_5 2)))
 (or (= cell_5_5 1) $x5515 (= cell_5_5 3) (= cell_5_5 4) (= cell_5_5 5) (= cell_5_5 6) (= cell_5_5 7) (= cell_5_5 8) (= cell_5_5 9))))
(assert
 (let (($x9947 (= cell_6_5 9)))
 (let (($x1688 (= cell_6_5 8)))
 (let (($x7212 (= cell_6_5 7)))
 (let (($x6264 (= cell_6_5 6)))
 (let (($x3329 (= cell_6_5 5)))
 (let (($x300 (= cell_6_5 4)))
 (let (($x3960 (= cell_6_5 3)))
 (let (($x9490 (= cell_6_5 2)))
 (let (($x9271 (= cell_6_5 1)))
 (or $x9271 $x9490 $x3960 $x300 $x3329 $x6264 $x7212 $x1688 $x9947)))))))))))
(assert
 (let (($x899 (= cell_7_5 9)))
 (let (($x2052 (= cell_7_5 8)))
 (let (($x3675 (= cell_7_5 7)))
 (let (($x1467 (= cell_7_5 6)))
 (let (($x439 (= cell_7_5 5)))
 (let (($x459 (= cell_7_5 4)))
 (let (($x9663 (= cell_7_5 3)))
 (let (($x9643 (= cell_7_5 2)))
 (let (($x575 (= cell_7_5 1)))
 (or $x575 $x9643 $x9663 $x459 $x439 $x1467 $x3675 $x2052 $x899)))))))))))
(assert
 (let (($x949 (= cell_8_5 1)))
 (or $x949 (= cell_8_5 2) (= cell_8_5 3) (= cell_8_5 4) (= cell_8_5 5) (= cell_8_5 6) (= cell_8_5 7) (= cell_8_5 8) (= cell_8_5 9))))
(assert
 (let (($x2505 (= cell_9_5 2)))
 (let (($x7472 (= cell_9_5 1)))
 (or $x7472 $x2505 (= cell_9_5 3) (= cell_9_5 4) (= cell_9_5 5) (= cell_9_5 6) (= cell_9_5 7) (= cell_9_5 8) (= cell_9_5 9)))))
(assert
 (let (($x7103 (= cell_1_6 1)))
 (or $x7103 (= cell_1_6 2) (= cell_1_6 3) (= cell_1_6 4) (= cell_1_6 5) (= cell_1_6 6) (= cell_1_6 7) (= cell_1_6 8) (= cell_1_6 9))))
(assert
 (let (($x2391 (= cell_2_6 9)))
 (let (($x1548 (= cell_2_6 8)))
 (let (($x4462 (= cell_2_6 7)))
 (let (($x1226 (= cell_2_6 6)))
 (let (($x9415 (= cell_2_6 5)))
 (let (($x7691 (= cell_2_6 4)))
 (let (($x8530 (= cell_2_6 3)))
 (let (($x4292 (= cell_2_6 2)))
 (let (($x8549 (= cell_2_6 1)))
 (or $x8549 $x4292 $x8530 $x7691 $x9415 $x1226 $x4462 $x1548 $x2391)))))))))))
(assert
 (let (($x345 (= cell_3_6 9)))
 (let (($x9324 (= cell_3_6 8)))
 (let (($x8352 (= cell_3_6 7)))
 (let (($x6529 (= cell_3_6 6)))
 (let (($x8125 (= cell_3_6 5)))
 (let (($x7138 (= cell_3_6 4)))
 (let (($x6731 (= cell_3_6 3)))
 (let (($x9396 (= cell_3_6 2)))
 (let (($x7166 (= cell_3_6 1)))
 (or $x7166 $x9396 $x6731 $x7138 $x8125 $x6529 $x8352 $x9324 $x345)))))))))))
(assert
 (let (($x1037 (= cell_4_6 9)))
 (let (($x7404 (= cell_4_6 8)))
 (let (($x6180 (= cell_4_6 7)))
 (let (($x8799 (= cell_4_6 6)))
 (let (($x5477 (= cell_4_6 5)))
 (let (($x8716 (= cell_4_6 4)))
 (let (($x7418 (= cell_4_6 3)))
 (let (($x5058 (= cell_4_6 2)))
 (let (($x1282 (= cell_4_6 1)))
 (or $x1282 $x5058 $x7418 $x8716 $x5477 $x8799 $x6180 $x7404 $x1037)))))))))))
(assert
 (let (($x8327 (= cell_5_6 2)))
 (let (($x9790 (= cell_5_6 1)))
 (or $x9790 $x8327 (= cell_5_6 3) (= cell_5_6 4) (= cell_5_6 5) (= cell_5_6 6) (= cell_5_6 7) (= cell_5_6 8) (= cell_5_6 9)))))
(assert
 (let (($x713 (= cell_6_6 9)))
 (let (($x9976 (= cell_6_6 8)))
 (let (($x8319 (= cell_6_6 7)))
 (let (($x9971 (= cell_6_6 6)))
 (let (($x9426 (= cell_6_6 5)))
 (let (($x683 (= cell_6_6 4)))
 (let (($x6411 (= cell_6_6 3)))
 (let (($x3042 (= cell_6_6 2)))
 (let (($x7408 (= cell_6_6 1)))
 (or $x7408 $x3042 $x6411 $x683 $x9426 $x9971 $x8319 $x9976 $x713)))))))))))
(assert
 (let (($x8813 (= cell_7_6 9)))
 (let (($x8189 (= cell_7_6 8)))
 (let (($x4347 (= cell_7_6 7)))
 (let (($x177 (= cell_7_6 6)))
 (let (($x2138 (= cell_7_6 5)))
 (let (($x3666 (= cell_7_6 4)))
 (let (($x2011 (= cell_7_6 3)))
 (let (($x8923 (= cell_7_6 2)))
 (let (($x10034 (= cell_7_6 1)))
 (or $x10034 $x8923 $x2011 $x3666 $x2138 $x177 $x4347 $x8189 $x8813)))))))))))
(assert
 (let (($x9877 (= cell_8_6 1)))
 (or $x9877 (= cell_8_6 2) (= cell_8_6 3) (= cell_8_6 4) (= cell_8_6 5) (= cell_8_6 6) (= cell_8_6 7) (= cell_8_6 8) (= cell_8_6 9))))
(assert
 (let (($x9588 (= cell_9_6 1)))
 (or $x9588 (= cell_9_6 2) (= cell_9_6 3) (= cell_9_6 4) (= cell_9_6 5) (= cell_9_6 6) (= cell_9_6 7) (= cell_9_6 8) (= cell_9_6 9))))
(assert
 (let (($x675 (= cell_1_7 9)))
 (let (($x5631 (= cell_1_7 8)))
 (let (($x6378 (= cell_1_7 7)))
 (let (($x8114 (= cell_1_7 6)))
 (let (($x7970 (= cell_1_7 5)))
 (let (($x10258 (= cell_1_7 4)))
 (let (($x928 (= cell_1_7 3)))
 (let (($x2084 (= cell_1_7 2)))
 (let (($x5033 (= cell_1_7 1)))
 (or $x5033 $x2084 $x928 $x10258 $x7970 $x8114 $x6378 $x5631 $x675)))))))))))
(assert
 (let (($x5325 (= cell_2_7 9)))
 (let (($x3306 (= cell_2_7 8)))
 (let (($x6073 (= cell_2_7 7)))
 (let (($x9296 (= cell_2_7 6)))
 (let (($x782 (= cell_2_7 5)))
 (let (($x15 (= cell_2_7 4)))
 (let (($x8383 (= cell_2_7 3)))
 (let (($x2764 (= cell_2_7 2)))
 (let (($x7517 (= cell_2_7 1)))
 (or $x7517 $x2764 $x8383 $x15 $x782 $x9296 $x6073 $x3306 $x5325)))))))))))
(assert
 (let (($x4245 (= cell_3_7 1)))
 (or $x4245 (= cell_3_7 2) (= cell_3_7 3) (= cell_3_7 4) (= cell_3_7 5) (= cell_3_7 6) (= cell_3_7 7) (= cell_3_7 8) (= cell_3_7 9))))
(assert
 (let (($x6844 (= cell_4_7 9)))
 (let (($x8496 (= cell_4_7 8)))
 (let (($x3190 (= cell_4_7 7)))
 (let (($x6927 (= cell_4_7 6)))
 (let (($x8596 (= cell_4_7 5)))
 (let (($x9443 (= cell_4_7 4)))
 (let (($x6827 (= cell_4_7 3)))
 (let (($x8655 (= cell_4_7 2)))
 (let (($x4701 (= cell_4_7 1)))
 (or $x4701 $x8655 $x6827 $x9443 $x8596 $x6927 $x3190 $x8496 $x6844)))))))))))
(assert
 (let (($x8761 (= cell_5_7 9)))
 (let (($x4510 (= cell_5_7 8)))
 (let (($x1636 (= cell_5_7 7)))
 (let (($x9005 (= cell_5_7 6)))
 (let (($x7476 (= cell_5_7 5)))
 (let (($x4846 (= cell_5_7 4)))
 (let (($x7838 (= cell_5_7 3)))
 (let (($x5425 (= cell_5_7 2)))
 (let (($x3304 (= cell_5_7 1)))
 (or $x3304 $x5425 $x7838 $x4846 $x7476 $x9005 $x1636 $x4510 $x8761)))))))))))
(assert
 (let (($x9474 (= cell_6_7 9)))
 (let (($x433 (= cell_6_7 8)))
 (let (($x1651 (= cell_6_7 7)))
 (let (($x8801 (= cell_6_7 6)))
 (let (($x7477 (= cell_6_7 5)))
 (let (($x3705 (= cell_6_7 4)))
 (let (($x1415 (= cell_6_7 3)))
 (let (($x8542 (= cell_6_7 2)))
 (let (($x7308 (= cell_6_7 1)))
 (or $x7308 $x8542 $x1415 $x3705 $x7477 $x8801 $x1651 $x433 $x9474)))))))))))
(assert
 (let (($x9055 (= cell_7_7 9)))
 (let (($x2279 (= cell_7_7 8)))
 (let (($x6664 (= cell_7_7 7)))
 (let (($x8056 (= cell_7_7 6)))
 (let (($x5055 (= cell_7_7 5)))
 (let (($x2153 (= cell_7_7 4)))
 (let (($x6440 (= cell_7_7 3)))
 (let (($x6837 (= cell_7_7 2)))
 (let (($x5826 (= cell_7_7 1)))
 (or $x5826 $x6837 $x6440 $x2153 $x5055 $x8056 $x6664 $x2279 $x9055)))))))))))
(assert
 (let (($x6466 (= cell_8_7 1)))
 (or $x6466 (= cell_8_7 2) (= cell_8_7 3) (= cell_8_7 4) (= cell_8_7 5) (= cell_8_7 6) (= cell_8_7 7) (= cell_8_7 8) (= cell_8_7 9))))
(assert
 (let (($x8981 (= cell_9_7 1)))
 (or $x8981 (= cell_9_7 2) (= cell_9_7 3) (= cell_9_7 4) (= cell_9_7 5) (= cell_9_7 6) (= cell_9_7 7) (= cell_9_7 8) (= cell_9_7 9))))
(assert
 (let (($x3934 (= cell_1_8 9)))
 (let (($x6887 (= cell_1_8 8)))
 (let (($x10129 (= cell_1_8 7)))
 (let (($x3777 (= cell_1_8 6)))
 (let (($x4469 (= cell_1_8 5)))
 (let (($x7239 (= cell_1_8 4)))
 (let (($x6866 (= cell_1_8 3)))
 (let (($x3355 (= cell_1_8 2)))
 (let (($x8493 (= cell_1_8 1)))
 (or $x8493 $x3355 $x6866 $x7239 $x4469 $x3777 $x10129 $x6887 $x3934)))))))))))
(assert
 (let (($x9098 (= cell_2_8 9)))
 (let (($x5877 (= cell_2_8 8)))
 (let (($x5245 (= cell_2_8 7)))
 (let (($x9298 (= cell_2_8 6)))
 (let (($x8885 (= cell_2_8 5)))
 (let (($x2757 (= cell_2_8 4)))
 (let (($x3543 (= cell_2_8 3)))
 (let (($x10037 (= cell_2_8 2)))
 (let (($x1298 (= cell_2_8 1)))
 (or $x1298 $x10037 $x3543 $x2757 $x8885 $x9298 $x5245 $x5877 $x9098)))))))))))
(assert
 (let (($x327 (= cell_3_8 2)))
 (or (= cell_3_8 1) $x327 (= cell_3_8 3) (= cell_3_8 4) (= cell_3_8 5) (= cell_3_8 6) (= cell_3_8 7) (= cell_3_8 8) (= cell_3_8 9))))
(assert
 (let (($x5252 (= cell_4_8 9)))
 (let (($x1520 (= cell_4_8 8)))
 (let (($x5383 (= cell_4_8 7)))
 (let (($x1661 (= cell_4_8 6)))
 (let (($x5167 (= cell_4_8 5)))
 (let (($x1989 (= cell_4_8 4)))
 (let (($x23 (= cell_4_8 3)))
 (let (($x9987 (= cell_4_8 2)))
 (let (($x5627 (= cell_4_8 1)))
 (or $x5627 $x9987 $x23 $x1989 $x5167 $x1661 $x5383 $x1520 $x5252)))))))))))
(assert
 (let (($x10050 (= cell_5_8 9)))
 (let (($x7877 (= cell_5_8 8)))
 (let (($x8913 (= cell_5_8 7)))
 (let (($x6765 (= cell_5_8 6)))
 (let (($x9956 (= cell_5_8 5)))
 (let (($x3985 (= cell_5_8 4)))
 (let (($x5924 (= cell_5_8 3)))
 (let (($x6246 (= cell_5_8 2)))
 (let (($x9679 (= cell_5_8 1)))
 (or $x9679 $x6246 $x5924 $x3985 $x9956 $x6765 $x8913 $x7877 $x10050)))))))))))
(assert
 (let (($x2007 (= cell_6_8 1)))
 (or $x2007 (= cell_6_8 2) (= cell_6_8 3) (= cell_6_8 4) (= cell_6_8 5) (= cell_6_8 6) (= cell_6_8 7) (= cell_6_8 8) (= cell_6_8 9))))
(assert
 (let (($x4313 (= cell_7_8 9)))
 (let (($x3191 (= cell_7_8 8)))
 (let (($x8429 (= cell_7_8 7)))
 (let (($x579 (= cell_7_8 6)))
 (let (($x3248 (= cell_7_8 5)))
 (let (($x8579 (= cell_7_8 4)))
 (let (($x4958 (= cell_7_8 3)))
 (let (($x5291 (= cell_7_8 2)))
 (let (($x6918 (= cell_7_8 1)))
 (or $x6918 $x5291 $x4958 $x8579 $x3248 $x579 $x8429 $x3191 $x4313)))))))))))
(assert
 (let (($x57 (= cell_8_8 2)))
 (let (($x7777 (= cell_8_8 1)))
 (or $x7777 $x57 (= cell_8_8 3) (= cell_8_8 4) (= cell_8_8 5) (= cell_8_8 6) (= cell_8_8 7) (= cell_8_8 8) (= cell_8_8 9)))))
(assert
 (let (($x2111 (= cell_9_8 2)))
 (let (($x7783 (= cell_9_8 1)))
 (or $x7783 $x2111 (= cell_9_8 3) (= cell_9_8 4) (= cell_9_8 5) (= cell_9_8 6) (= cell_9_8 7) (= cell_9_8 8) (= cell_9_8 9)))))
(assert
 (let (($x6148 (= cell_1_9 9)))
 (let (($x1639 (= cell_1_9 8)))
 (let (($x6134 (= cell_1_9 7)))
 (let (($x5569 (= cell_1_9 6)))
 (let (($x647 (= cell_1_9 5)))
 (let (($x6205 (= cell_1_9 4)))
 (let (($x4612 (= cell_1_9 3)))
 (let (($x252 (= cell_1_9 2)))
 (let (($x5444 (= cell_1_9 1)))
 (or $x5444 $x252 $x4612 $x6205 $x647 $x5569 $x6134 $x1639 $x6148)))))))))))
(assert
 (let (($x1905 (= cell_2_9 9)))
 (let (($x8297 (= cell_2_9 8)))
 (let (($x6817 (= cell_2_9 7)))
 (let (($x71 (= cell_2_9 6)))
 (let (($x5646 (= cell_2_9 5)))
 (let (($x6024 (= cell_2_9 4)))
 (let (($x9656 (= cell_2_9 3)))
 (let (($x5283 (= cell_2_9 2)))
 (let (($x4417 (= cell_2_9 1)))
 (or $x4417 $x5283 $x9656 $x6024 $x5646 $x71 $x6817 $x8297 $x1905)))))))))))
(assert
 (let (($x4360 (= cell_3_9 9)))
 (let (($x3557 (= cell_3_9 8)))
 (let (($x4455 (= cell_3_9 7)))
 (let (($x4849 (= cell_3_9 6)))
 (let (($x2802 (= cell_3_9 5)))
 (let (($x5997 (= cell_3_9 4)))
 (let (($x146 (= cell_3_9 3)))
 (let (($x3585 (= cell_3_9 2)))
 (let (($x2964 (= cell_3_9 1)))
 (or $x2964 $x3585 $x146 $x5997 $x2802 $x4849 $x4455 $x3557 $x4360)))))))))))
(assert
 (let (($x4044 (= cell_4_9 2)))
 (or (= cell_4_9 1) $x4044 (= cell_4_9 3) (= cell_4_9 4) (= cell_4_9 5) (= cell_4_9 6) (= cell_4_9 7) (= cell_4_9 8) (= cell_4_9 9))))
(assert
 (let (($x6238 (= cell_5_9 9)))
 (let (($x8096 (= cell_5_9 8)))
 (let (($x847 (= cell_5_9 7)))
 (let (($x81 (= cell_5_9 6)))
 (let (($x3263 (= cell_5_9 5)))
 (let (($x9452 (= cell_5_9 4)))
 (let (($x2681 (= cell_5_9 3)))
 (let (($x6004 (= cell_5_9 2)))
 (let (($x9108 (= cell_5_9 1)))
 (or $x9108 $x6004 $x2681 $x9452 $x3263 $x81 $x847 $x8096 $x6238)))))))))))
(assert
 (let (($x2901 (= cell_6_9 9)))
 (let (($x9065 (= cell_6_9 8)))
 (let (($x8442 (= cell_6_9 7)))
 (let (($x8240 (= cell_6_9 6)))
 (let (($x2686 (= cell_6_9 5)))
 (let (($x8888 (= cell_6_9 4)))
 (let (($x5743 (= cell_6_9 3)))
 (let (($x2888 (= cell_6_9 2)))
 (let (($x5228 (= cell_6_9 1)))
 (or $x5228 $x2888 $x5743 $x8888 $x2686 $x8240 $x8442 $x9065 $x2901)))))))))))
(assert
 (let (($x863 (= cell_7_9 1)))
 (or $x863 (= cell_7_9 2) (= cell_7_9 3) (= cell_7_9 4) (= cell_7_9 5) (= cell_7_9 6) (= cell_7_9 7) (= cell_7_9 8) (= cell_7_9 9))))
(assert
 (let (($x8158 (= cell_8_9 2)))
 (let (($x4254 (= cell_8_9 1)))
 (or $x4254 $x8158 (= cell_8_9 3) (= cell_8_9 4) (= cell_8_9 5) (= cell_8_9 6) (= cell_8_9 7) (= cell_8_9 8) (= cell_8_9 9)))))
(assert
 (let (($x5322 (= cell_9_9 2)))
 (let (($x6846 (= cell_9_9 1)))
 (or $x6846 $x5322 (= cell_9_9 3) (= cell_9_9 4) (= cell_9_9 5) (= cell_9_9 6) (= cell_9_9 7) (= cell_9_9 8) (= cell_9_9 9)))))
(assert
 (and (distinct cell_1_1 cell_1_2 cell_1_3 cell_1_4 cell_1_5 cell_1_6 cell_1_7 cell_1_8 cell_1_9) true))
(assert
 (and (distinct cell_2_1 cell_2_2 cell_2_3 cell_2_4 cell_2_5 cell_2_6 cell_2_7 cell_2_8 cell_2_9) true))
(assert
 (and (distinct cell_3_1 cell_3_2 cell_3_3 cell_3_4 cell_3_5 cell_3_6 cell_3_7 cell_3_8 cell_3_9) true))
(assert
 (and (distinct cell_4_1 cell_4_2 cell_4_3 cell_4_4 cell_4_5 cell_4_6 cell_4_7 cell_4_8 cell_4_9) true))
(assert
 (and (distinct cell_5_1 cell_5_2 cell_5_3 cell_5_4 cell_5_5 cell_5_6 cell_5_7 cell_5_8 cell_5_9) true))
(assert
 (and (distinct cell_6_1 cell_6_2 cell_6_3 cell_6_4 cell_6_5 cell_6_6 cell_6_7 cell_6_8 cell_6_9) true))
(assert
 (and (distinct cell_7_1 cell_7_2 cell_7_3 cell_7_4 cell_7_5 cell_7_6 cell_7_7 cell_7_8 cell_7_9) true))
(assert
 (and (distinct cell_8_1 cell_8_2 cell_8_3 cell_8_4 cell_8_5 cell_8_6 cell_8_7 cell_8_8 cell_8_9) true))
(assert
 (and (distinct cell_9_1 cell_9_2 cell_9_3 cell_9_4 cell_9_5 cell_9_6 cell_9_7 cell_9_8 cell_9_9) true))
(assert
 (and (distinct cell_1_1 cell_2_1 cell_3_1 cell_4_1 cell_5_1 cell_6_1 cell_7_1 cell_8_1 cell_9_1) true))
(assert
 (and (distinct cell_1_2 cell_2_2 cell_3_2 cell_4_2 cell_5_2 cell_6_2 cell_7_2 cell_8_2 cell_9_2) true))
(assert
 (and (distinct cell_1_3 cell_2_3 cell_3_3 cell_4_3 cell_5_3 cell_6_3 cell_7_3 cell_8_3 cell_9_3) true))
(assert
 (and (distinct cell_1_4 cell_2_4 cell_3_4 cell_4_4 cell_5_4 cell_6_4 cell_7_4 cell_8_4 cell_9_4) true))
(assert
 (and (distinct cell_1_5 cell_2_5 cell_3_5 cell_4_5 cell_5_5 cell_6_5 cell_7_5 cell_8_5 cell_9_5) true))
(assert
 (and (distinct cell_1_6 cell_2_6 cell_3_6 cell_4_6 cell_5_6 cell_6_6 cell_7_6 cell_8_6 cell_9_6) true))
(assert
 (and (distinct cell_1_7 cell_2_7 cell_3_7 cell_4_7 cell_5_7 cell_6_7 cell_7_7 cell_8_7 cell_9_7) true))
(assert
 (and (distinct cell_1_8 cell_2_8 cell_3_8 cell_4_8 cell_5_8 cell_6_8 cell_7_8 cell_8_8 cell_9_8) true))
(assert
 (and (distinct cell_1_9 cell_2_9 cell_3_9 cell_4_9 cell_5_9 cell_6_9 cell_7_9 cell_8_9 cell_9_9) true))
(assert
 (and (distinct cell_1_1 cell_1_2 cell_1_3 cell_2_1 cell_2_2 cell_2_3 cell_3_1 cell_3_2 cell_3_3) true))
(assert
 (and (distinct cell_1_4 cell_1_5 cell_1_6 cell_2_4 cell_2_5 cell_2_6 cell_3_4 cell_3_5 cell_3_6) true))
(assert
 (and (distinct cell_1_7 cell_1_8 cell_1_9 cell_2_7 cell_2_8 cell_2_9 cell_3_7 cell_3_8 cell_3_9) true))
(assert
 (and (distinct cell_4_1 cell_4_2 cell_4_3 cell_5_1 cell_5_2 cell_5_3 cell_6_1 cell_6_2 cell_6_3) true))
(assert
 (and (distinct cell_4_4 cell_4_5 cell_4_6 cell_5_4 cell_5_5 cell_5_6 cell_6_4 cell_6_5 cell_6_6) true))
(assert
 (and (distinct cell_4_7 cell_4_8 cell_4_9 cell_5_7 cell_5_8 cell_5_9 cell_6_7 cell_6_8 cell_6_9) true))
(assert
 (and (distinct cell_7_1 cell_7_2 cell_7_3 cell_8_1 cell_8_2 cell_8_3 cell_9_1 cell_9_2 cell_9_3) true))
(assert
 (and (distinct cell_7_4 cell_7_5 cell_7_6 cell_8_4 cell_8_5 cell_8_6 cell_9_4 cell_9_5 cell_9_6) true))
(assert
 (and (distinct cell_7_7 cell_7_8 cell_7_9 cell_8_7 cell_8_8 cell_8_9 cell_9_7 cell_9_8 cell_9_9) true))
(assert
 (let (($x8903 (and (distinct cell_5_9 cell_6_8 cell_7_7 cell_8_6) true)))
 (let (($x8465 (and (distinct cell_2_9 cell_3_8 cell_4_7 cell_5_6 cell_6_5 cell_7_4 cell_8_3 cell_9_2) true)))
 (let (($x1468 (and (distinct cell_1_8 cell_2_7 cell_3_6 cell_4_5 cell_5_4 cell_6_3 cell_7_2 cell_8_1) true)))
 (let (($x414 (and (distinct cell_1_5 cell_2_4 cell_3_3 cell_4_2) true)))
 (let (($x4775 (and (distinct cell_5_1 cell_6_2 cell_7_3 cell_8_4) true)))
 (let (($x8514 (and (distinct cell_2_1 cell_3_2 cell_4_3 cell_5_4 cell_6_5 cell_7_6 cell_8_7 cell_9_8) true)))
 (let (($x4068 (and (distinct cell_1_2 cell_2_3 cell_3_4 cell_4_5 cell_5_6 cell_6_7 cell_7_8 cell_8_9) true)))
 (let (($x4920 (and (distinct cell_1_5 cell_2_6 cell_3_7 cell_4_8) true)))
 (and $x4920 $x4068 $x8514 $x4775 $x414 $x1468 $x8465 $x8903))))))))))
(assert
 (= cell_6_3 2))
(check-sat)
